HUN,8,6,16
1,14,3,8,0,18,5,20,2,4,4,16
5,11,2,30,0,28,1,16,4,28,3,20
4,22,1,13,3,5,0,10,2,28,5,25
1,12,4,9,5,19,3,17,2,19,0,15
3,18,5,16,0,25,4,19,2,11,1,2
1,4,2,1,4,4,3,2,0,15,5,20
5,13,0,7,4,10,3,13,1,18,2,12
5,23,0,28,2,18,1,20,4,10,3,6
